c created by edge2cnf
p cnf 100 399
-1 -100 0
-1 -58 0
-1 -34 0
-1 -49 0
-1 -75 0
-1 -20 0
-1 -76 0
-1 -84 0
-1 -54 0
-2 -3 0
-2 -5 0
-2 -49 0
-2 -9 0
-2 -50 0
-2 -55 0
-2 -21 0
-3 -6 0
-3 -99 0
-3 -41 0
-3 -85 0
-3 -9 0
-4 -8 0
-4 -6 0
-4 -100 0
-4 -78 0
-4 -37 0
-4 -50 0
-4 -21 0
-4 -9 0
-4 -27 0
-4 -86 0
-5 -28 0
-5 -68 0
-5 -86 0
-5 -72 0
-5 -16 0
-5 -79 0
-5 -84 0
-6 -10 0
-6 -9 0
-6 -72 0
-6 -32 0
-6 -97 0
-7 -11 0
-7 -31 0
-7 -91 0
-7 -15 0
-7 -85 0
-7 -68 0
-7 -58 0
-7 -98 0
-7 -70 0
-8 -71 0
-8 -95 0
-8 -68 0
-8 -30 0
-8 -86 0
-8 -13 0
-9 -12 0
-9 -13 0
-9 -56 0
-9 -55 0
-9 -48 0
-9 -62 0
-10 -11 0
-10 -98 0
-10 -77 0
-10 -69 0
-10 -64 0
-10 -85 0
-11 -12 0
-11 -90 0
-11 -52 0
-11 -26 0
-11 -97 0
-11 -21 0
-11 -27 0
-12 -16 0
-12 -87 0
-12 -58 0
-12 -29 0
-12 -70 0
-12 -84 0
-12 -21 0
-12 -40 0
-13 -38 0
-13 -28 0
-13 -89 0
-13 -34 0
-13 -55 0
-14 -15 0
-14 -93 0
-14 -71 0
-14 -84 0
-15 -19 0
-15 -18 0
-15 -87 0
-15 -72 0
-15 -22 0
-15 -96 0
-15 -93 0
-15 -58 0
-15 -91 0
-16 -19 0
-16 -20 0
-16 -75 0
-16 -72 0
-16 -65 0
-16 -95 0
-17 -19 0
-17 -63 0
-18 -84 0
-18 -64 0
-18 -66 0
-19 -65 0
-19 -36 0
-19 -98 0
-19 -62 0
-20 -21 0
-20 -23 0
-20 -91 0
-20 -69 0
-20 -66 0
-20 -86 0
-21 -23 0
-21 -24 0
-21 -25 0
-21 -32 0
-21 -100 0
-21 -97 0
-22 -24 0
-22 -66 0
-22 -39 0
-22 -59 0
-23 -26 0
-23 -32 0
-23 -43 0
-24 -25 0
-24 -27 0
-24 -96 0
-24 -78 0
-24 -63 0
-24 -77 0
-25 -29 0
-25 -71 0
-25 -56 0
-25 -50 0
-25 -55 0
-25 -94 0
-25 -45 0
-26 -29 0
-26 -81 0
-26 -91 0
-26 -88 0
-26 -63 0
-27 -28 0
-27 -81 0
-27 -69 0
-27 -80 0
-28 -30 0
-28 -29 0
-28 -99 0
-28 -78 0
-28 -74 0
-28 -59 0
-28 -82 0
-28 -98 0
-29 -41 0
-29 -62 0
-29 -46 0
-29 -99 0
-29 -95 0
-29 -45 0
-30 -31 0
-30 -72 0
-31 -56 0
-31 -68 0
-32 -33 0
-32 -36 0
-32 -35 0
-32 -56 0
-32 -100 0
-33 -94 0
-33 -60 0
-33 -99 0
-33 -72 0
-34 -41 0
-34 -60 0
-34 -93 0
-34 -80 0
-34 -64 0
-34 -54 0
-35 -43 0
-35 -54 0
-35 -93 0
-35 -100 0
-35 -98 0
-36 -40 0
-36 -78 0
-36 -95 0
-36 -61 0
-36 -42 0
-37 -39 0
-37 -38 0
-37 -40 0
-37 -62 0
-37 -55 0
-38 -42 0
-38 -72 0
-38 -67 0
-38 -76 0
-38 -98 0
-38 -61 0
-39 -40 0
-39 -42 0
-39 -63 0
-39 -78 0
-39 -89 0
-40 -56 0
-40 -80 0
-40 -86 0
-41 -81 0
-41 -61 0
-41 -88 0
-42 -43 0
-42 -46 0
-42 -100 0
-42 -71 0
-43 -53 0
-43 -70 0
-43 -64 0
-43 -89 0
-43 -71 0
-44 -67 0
-44 -94 0
-44 -96 0
-44 -65 0
-44 -93 0
-44 -95 0
-45 -49 0
-45 -66 0
-45 -80 0
-45 -93 0
-45 -73 0
-45 -86 0
-46 -65 0
-46 -73 0
-46 -74 0
-46 -59 0
-46 -64 0
-46 -81 0
-47 -49 0
-47 -80 0
-47 -79 0
-47 -76 0
-47 -92 0
-48 -51 0
-48 -82 0
-48 -90 0
-48 -92 0
-49 -50 0
-49 -68 0
-49 -82 0
-49 -85 0
-49 -98 0
-50 -60 0
-51 -74 0
-51 -90 0
-52 -55 0
-52 -56 0
-52 -54 0
-52 -88 0
-52 -73 0
-52 -92 0
-53 -55 0
-53 -56 0
-53 -62 0
-53 -75 0
-54 -57 0
-54 -55 0
-54 -84 0
-54 -73 0
-54 -71 0
-54 -83 0
-54 -87 0
-55 -91 0
-55 -95 0
-55 -77 0
-56 -98 0
-56 -87 0
-56 -96 0
-56 -81 0
-56 -91 0
-56 -93 0
-57 -59 0
-57 -58 0
-57 -97 0
-58 -59 0
-58 -62 0
-58 -85 0
-58 -64 0
-58 -98 0
-58 -79 0
-58 -91 0
-58 -66 0
-59 -63 0
-59 -60 0
-59 -62 0
-59 -81 0
-59 -77 0
-60 -62 0
-60 -88 0
-60 -98 0
-60 -97 0
-61 -63 0
-61 -65 0
-61 -66 0
-61 -93 0
-62 -66 0
-62 -88 0
-62 -92 0
-63 -89 0
-63 -90 0
-64 -65 0
-64 -67 0
-64 -88 0
-64 -98 0
-65 -68 0
-65 -66 0
-65 -97 0
-65 -86 0
-66 -69 0
-66 -68 0
-66 -72 0
-66 -77 0
-67 -71 0
-67 -94 0
-67 -84 0
-67 -92 0
-67 -75 0
-67 -89 0
-68 -83 0
-68 -84 0
-68 -80 0
-68 -99 0
-69 -71 0
-69 -78 0
-70 -73 0
-70 -72 0
-70 -84 0
-70 -93 0
-70 -79 0
-70 -76 0
-71 -92 0
-71 -81 0
-72 -76 0
-72 -81 0
-72 -83 0
-73 -77 0
-73 -76 0
-73 -74 0
-74 -78 0
-74 -75 0
-74 -86 0
-75 -76 0
-76 -95 0
-77 -80 0
-77 -78 0
-77 -81 0
-77 -96 0
-78 -79 0
-78 -89 0
-79 -81 0
-80 -83 0
-81 -84 0
-81 -85 0
-81 -87 0
-81 -96 0
-83 -84 0
-84 -88 0
-84 -100 0
-84 -90 0
-84 -98 0
-85 -87 0
-85 -93 0
-85 -95 0
-85 -94 0
-87 -89 0
-88 -92 0
-89 -97 0
-90 -91 0
-90 -94 0
-90 -96 0
-91 -96 0
-93 -96 0
-94 -95 0
-95 -96 0
-96 -99 0
-97 -99 0
